
Gurobi 11.0.0 (linux64) logging started Mon Apr 15 08:47:58 2024

Set parameter LogFile to value "/lustre1/scratch/348/vsc34888/JointResearch/05.Models/06.Benchmarking/L.Cont_Investments_per_hour/RTS24_ByStages_nc10/openStarNet_RTS24_ByStages_nc10.log"
Set parameter Method to value 2
Set parameter MIPFocus to value 1
Set parameter Presolve to value 2
Set parameter RINS to value 100
Set parameter MIPGap to value 0.01
Set parameter Threads to value 36
Set parameter TimeLimit to value 259200
Set parameter IterationLimit to value 760000000
Gurobi Optimizer version 11.0.0 build v11.0.0rc2 (linux64 - "Rocky Linux 8.8 (Green Obsidian)")

CPU model: Intel(R) Xeon(R) Gold 6140 CPU @ 2.30GHz, instruction set [SSE2|AVX|AVX2|AVX512]
Thread count: 36 physical cores, 36 logical processors, using up to 36 threads

Optimize a model with 3893 rows, 2314 columns and 10261 nonzeros
Model fingerprint: 0xdf46485a
Variable types: 2284 continuous, 30 integer (30 binary)
Coefficient statistics:
  Matrix range     [3e-02, 2e+03]
  Objective range  [1e+00, 1e+00]
  Bounds range     [4e-04, 2e+00]
  RHS range        [4e-04, 2e+00]
Presolve removed 2093 rows and 1074 columns
Presolve time: 0.04s
Presolved: 1800 rows, 1240 columns, 6330 nonzeros
Variable types: 1210 continuous, 30 integer (30 binary)
Found heuristic solution: objective 357.0304956
Root relaxation presolved: 1800 rows, 1240 columns, 6330 nonzeros

Root barrier log...

Ordering time: 0.03s

Barrier statistics:
 AA' NZ     : 3.373e+04
 Factor NZ  : 1.898e+05 (roughly 3 MB of memory)
 Factor Ops : 2.975e+07 (less than 1 second per iteration)
 Threads    : 36

                  Objective                Residual
Iter       Primal          Dual         Primal    Dual     Compl     Time
   0   1.95375914e+06 -2.12207355e+07  1.75e+01 9.86e+02  3.46e+04     0s
   1   4.86718344e+05 -1.12399421e+07  4.17e+00 2.22e-11  8.01e+03     0s
   2   1.09189147e+05 -6.07922982e+06  8.90e-01 2.89e-10  2.37e+03     0s
   3   1.58587148e+04 -8.60330132e+05  2.12e-02 8.71e-11  2.36e+02     0s
   4   5.88371324e+03 -3.85313481e+04  1.08e-13 1.09e-11  1.17e+01     0s
   5   6.44578312e+02 -3.12475854e+03  1.31e-13 3.64e-12  9.89e-01     0s
   6   4.73433211e+02 -5.80040053e+02  2.34e-13 1.82e-12  2.77e-01     0s
   7   3.41257244e+02 -4.04760089e+01  1.36e-13 3.64e-12  1.00e-01     0s
   8   2.83761936e+02  1.25222422e+02  8.97e-14 3.64e-12  4.16e-02     0s
   9   2.66349581e+02  1.92629684e+02  2.40e-13 3.64e-12  1.93e-02     0s
  10   2.57295050e+02  2.34220612e+02  1.94e-12 3.64e-12  6.06e-03     0s
  11   2.51844838e+02  2.47430179e+02  5.20e-12 7.28e-12  1.16e-03     0s
  12   2.49927857e+02  2.48546338e+02  1.11e-11 3.64e-12  3.63e-04     0s
  13   2.49471076e+02  2.49001247e+02  1.01e-11 3.64e-12  1.23e-04     0s
  14   2.49336746e+02  2.49136819e+02  9.48e-12 3.64e-12  5.25e-05     0s
  15   2.49209680e+02  2.49174043e+02  5.09e-10 3.64e-12  9.35e-06     0s
  16   2.49200278e+02  2.49184341e+02  2.50e-10 3.64e-12  4.18e-06     0s
  17   2.49189138e+02  2.49187053e+02  1.41e-10 3.64e-12  5.47e-07     0s
  18   2.49188617e+02  2.49188491e+02  2.86e-10 7.28e-12  3.31e-08     0s
  19   2.49188581e+02  2.49188579e+02  2.39e-10 7.28e-12  6.15e-10     0s

Barrier solved model in 19 iterations and 0.43 seconds (0.07 work units)
Optimal objective 2.49188581e+02


Root relaxation: objective 2.491886e+02, 265 iterations, 0.28 seconds (0.05 work units)

    Nodes    |    Current Node    |     Objective Bounds      |     Work
 Expl Unexpl |  Obj  Depth IntInf | Incumbent    BestBd   Gap | It/Node Time

     0     0  249.18858    0   18  357.03050  249.18858  30.2%     -    0s
     0     0  251.26372    0   14  357.03050  251.26372  29.6%     -    0s
H    0     0                     323.5874178  251.26372  22.4%     -    0s
     0     0  251.27410    0   14  323.58742  251.27410  22.3%     -    0s
     0     0  252.55487    0   12  323.58742  252.55487  22.0%     -    0s
H    0     0                     315.7436595  252.60594  20.0%     -    0s
     0     0  252.60594    0   13  315.74366  252.60594  20.0%     -    0s
     0     0  252.74557    0   14  315.74366  252.74557  20.0%     -    0s
     0     0  252.80975    0   14  315.74366  252.80975  19.9%     -    0s
H    0     0                     310.9811908  252.81229  18.7%     -    0s
     0     0  252.81229    0   14  310.98119  252.81229  18.7%     -    0s
     0     0  252.81257    0   14  310.98119  252.81257  18.7%     -    0s
     0     0  253.65934    0   16  310.98119  253.65934  18.4%     -    0s
     0     0  254.18896    0   18  310.98119  254.18896  18.3%     -    0s
     0     0  254.18896    0   15  310.98119  254.18896  18.3%     -    0s
     0     0  254.76815    0   14  310.98119  254.76815  18.1%     -    0s
H    0     0                     307.3660963  254.79441  17.1%     -    0s
     0     0  254.79441    0   14  307.36610  254.79441  17.1%     -    0s
H    0     0                     303.9611962  254.79441  16.2%     -    0s
     0     0  255.41658    0   14  303.96120  255.41658  16.0%     -    0s
H    0     0                     276.6603590  255.41658  7.68%     -    1s
     0     2  255.41658    0   14  276.66036  255.41658  7.68%     -    2s
H   79   109                     275.8187319  255.41658  7.40%  73.2    2s
H   82   109                     275.5820873  255.43619  7.31%  71.8    2s
H   84   109                     275.3656943  255.43619  7.24%  70.9    2s
H  103   109                     275.2695075  255.43619  7.21%  66.5    2s
H  108   109                     275.1616317  255.43619  7.17%  65.0    2s
H  116   139                     274.8045208  255.60558  6.99%  63.4    3s
  1195   376  264.19166   10   10  274.80452  257.91401  6.15%  44.2    6s
H 1715   399                     274.8044452  258.50418  5.93%  41.3    7s

Cutting planes:
  Gomory: 13
  Implied bound: 15
  MIR: 64
  Relax-and-lift: 4

Explored 5324 nodes (160707 simplex iterations) in 9.58 seconds (8.40 work units)
Thread count was 36 (of 36 available processors)

Solution count 10: 274.804 275.162 275.27 ... 310.981

Optimal solution found (tolerance 1.00e-02)
Best objective 2.748044452054e+02, best bound 2.741707990613e+02, gap 0.2306%

Gurobi 11.0.0 (linux64) logging started Mon Apr 15 08:48:08 2024

Set parameter LogFile to value "/lustre1/scratch/348/vsc34888/JointResearch/05.Models/06.Benchmarking/L.Cont_Investments_per_hour/RTS24_ByStages_nc10/openStarNet_RTS24_ByStages_nc10.log"
Set parameter Method to value 2
Set parameter MIPFocus to value 1
Set parameter Presolve to value 2
Set parameter RINS to value 100
Set parameter MIPGap to value 0.01
Set parameter Threads to value 36
Set parameter TimeLimit to value 259200
Set parameter IterationLimit to value 760000000
Gurobi Optimizer version 11.0.0 build v11.0.0rc2 (linux64 - "Rocky Linux 8.8 (Green Obsidian)")

CPU model: Intel(R) Xeon(R) Gold 6140 CPU @ 2.30GHz, instruction set [SSE2|AVX|AVX2|AVX512]
Thread count: 36 physical cores, 36 logical processors, using up to 36 threads

Optimize a model with 3893 rows, 2284 columns and 9031 nonzeros
Model fingerprint: 0x891f699d
Coefficient statistics:
  Matrix range     [3e-02, 2e+03]
  Objective range  [1e+00, 1e+00]
  Bounds range     [4e-04, 2e+00]
  RHS range        [4e-04, 4e+01]
Presolve removed 3303 rows and 1294 columns
Presolve time: 0.00s
Presolved: 590 rows, 990 columns, 2580 nonzeros

Ordering time: 0.00s

Barrier statistics:
 AA' NZ     : 1.294e+03
 Factor NZ  : 4.418e+03
 Factor Ops : 5.816e+04 (less than 1 second per iteration)
 Threads    : 1

                  Objective                Residual
Iter       Primal          Dual         Primal    Dual     Compl     Time
   0   1.56059978e+06 -1.58801288e+07  9.73e+00 2.92e+03  1.00e+05     0s
   1   1.02025418e+05 -1.12478261e+07  4.74e-01 5.82e-11  1.09e+04     0s
   2   3.65279845e+04 -2.10613674e+06  7.79e-02 7.28e-11  1.59e+03     0s
   3   2.09451649e+04 -1.39397643e+05  6.25e-04 4.37e-11  1.05e+02     0s
   4   6.06271829e+03 -1.73035987e+04  5.42e-13 8.23e-11  1.53e+01     0s
   5   6.36901168e+02 -1.91371014e+03  4.13e-14 6.82e-12  1.67e+00     0s
   6   4.50161702e+02 -4.78681540e+02  3.42e-14 1.46e-11  6.08e-01     0s
   7   3.51574864e+02  4.31407024e+01  3.29e-14 1.46e-11  2.02e-01     0s
   8   2.91755139e+02  2.50561508e+02  1.11e-13 1.46e-11  2.70e-02     0s
   9   2.77277710e+02  2.73057763e+02  8.33e-14 1.46e-11  2.76e-03     0s
  10   2.74957446e+02  2.74780590e+02  5.80e-11 7.28e-12  1.16e-04     0s
  11   2.74804717e+02  2.74803130e+02  3.56e-09 2.91e-11  1.04e-06     0s
  12   2.74804521e+02  2.74804521e+02  2.06e-11 7.28e-12  2.59e-11     0s
  13   2.74804521e+02  2.74804521e+02  1.21e-10 3.64e-12  2.59e-14     0s

Barrier solved model in 13 iterations and 0.01 seconds (0.01 work units)
Optimal objective 2.74804521e+02

Crossover log...

     110 DPushes remaining with DInf 0.0000000e+00                 0s
       0 DPushes remaining with DInf 0.0000000e+00                 0s

      37 PPushes remaining with PInf 0.0000000e+00                 0s
       0 PPushes remaining with PInf 0.0000000e+00                 0s

  Push phase complete: Pinf 0.0000000e+00, Dinf 1.6034882e-12      0s

Iteration    Objective       Primal Inf.    Dual Inf.      Time
      42    2.7480452e+02   0.000000e+00   0.000000e+00      0s

Use crossover to convert LP symmetric solution to basic solution...
Crossover log...

      18 PPushes remaining with PInf 0.0000000e+00                 0s
       0 PPushes remaining with PInf 0.0000000e+00                 0s

  Push phase complete: Pinf 0.0000000e+00, Dinf 2.6599681e-12      0s

Iteration    Objective       Primal Inf.    Dual Inf.      Time
      63    2.7480452e+02   0.000000e+00   0.000000e+00      0s

Solved in 63 iterations and 0.02 seconds (0.01 work units)
Optimal objective  2.748045208e+02
